/* Objective function */
max: ;

/* Constraints */
R1: +x3 <= 0;
R2: +x1 <= 0;
R3: +x1 <= 0;
R4: +x4 <= 0;
R5: +x5 <= 0;
R6: +x2 <= 0;
R7: +x2 <= 0;
+x6 +x8 <= 0;
R9: +x7 <= 0;
0 x1 <= 1;
0 x1 <= 0;
R12: +x3 >= 0;
R13: +x3 >= 0;
R14: +x1 >= 0;
R15: +x4 >= 0;
R16: +x5 >= 0;
R17: +x5 >= 0;
R18: +x2 >= 0;
R19: +x6 >= 0;
R20: +x8 >= 0;
R21: +x7 >= 1;
R22: +x1 >= 0;
R23: +x2 >= 0;
R24: +x3 >= 0;
R25: +x4 >= 0;
R26: +x5 >= 0;
R27: +x6 >= 0;
R28: +x7 >= 0;
R29: +x8 >= 0;
